p cnf 600 2896
1 2 3 4 5 6 0
7 8 9 10 11 12 0
13 14 15 16 17 18 0
19 20 21 22 23 24 0
25 26 27 28 29 30 0
31 32 33 34 35 36 0
37 38 39 40 41 42 0
43 44 45 46 47 48 0
49 50 51 52 53 54 0
55 56 57 58 59 60 0
61 62 63 64 65 66 0
67 68 69 70 71 72 0
73 74 75 76 77 78 0
79 80 81 82 83 84 0
85 86 87 88 89 90 0
91 92 93 94 95 96 0
97 98 99 100 101 102 0
103 104 105 106 107 108 0
109 110 111 112 113 114 0
115 116 117 118 119 120 0
121 122 123 124 125 126 0
127 128 129 130 131 132 0
133 134 135 136 137 138 0
139 140 141 142 143 144 0
145 146 147 148 149 150 0
151 152 153 154 155 156 0
157 158 159 160 161 162 0
163 164 165 166 167 168 0
169 170 171 172 173 174 0
175 176 177 178 179 180 0
181 182 183 184 185 186 0
187 188 189 190 191 192 0
193 194 195 196 197 198 0
199 200 201 202 203 204 0
205 206 207 208 209 210 0
211 212 213 214 215 216 0
217 218 219 220 221 222 0
223 224 225 226 227 228 0
229 230 231 232 233 234 0
235 236 237 238 239 240 0
241 242 243 244 245 246 0
247 248 249 250 251 252 0
253 254 255 256 257 258 0
259 260 261 262 263 264 0
265 266 267 268 269 270 0
271 272 273 274 275 276 0
277 278 279 280 281 282 0
283 284 285 286 287 288 0
289 290 291 292 293 294 0
295 296 297 298 299 300 0
301 302 303 304 305 306 0
307 308 309 310 311 312 0
313 314 315 316 317 318 0
319 320 321 322 323 324 0
325 326 327 328 329 330 0
331 332 333 334 335 336 0
337 338 339 340 341 342 0
343 344 345 346 347 348 0
349 350 351 352 353 354 0
355 356 357 358 359 360 0
361 362 363 364 365 366 0
367 368 369 370 371 372 0
373 374 375 376 377 378 0
379 380 381 382 383 384 0
385 386 387 388 389 390 0
391 392 393 394 395 396 0
397 398 399 400 401 402 0
403 404 405 406 407 408 0
409 410 411 412 413 414 0
415 416 417 418 419 420 0
421 422 423 424 425 426 0
427 428 429 430 431 432 0
433 434 435 436 437 438 0
439 440 441 442 443 444 0
445 446 447 448 449 450 0
451 452 453 454 455 456 0
457 458 459 460 461 462 0
463 464 465 466 467 468 0
469 470 471 472 473 474 0
475 476 477 478 479 480 0
481 482 483 484 485 486 0
487 488 489 490 491 492 0
493 494 495 496 497 498 0
499 500 501 502 503 504 0
505 506 507 508 509 510 0
511 512 513 514 515 516 0
517 518 519 520 521 522 0
523 524 525 526 527 528 0
529 530 531 532 533 534 0
535 536 537 538 539 540 0
541 542 543 544 545 546 0
547 548 549 550 551 552 0
553 554 555 556 557 558 0
559 560 561 562 563 564 0
565 566 567 568 569 570 0
571 572 573 574 575 576 0
577 578 579 580 581 582 0
583 584 585 586 587 588 0
589 590 591 592 593 594 0
595 596 597 598 599 600 0
-1 -55 0
-2 -56 0
-3 -57 0
-4 -58 0
-5 -59 0
-6 -60 0
-1 -115 0
-2 -116 0
-3 -117 0
-4 -118 0
-5 -119 0
-6 -120 0
-1 -175 0
-2 -176 0
-3 -177 0
-4 -178 0
-5 -179 0
-6 -180 0
-1 -235 0
-2 -236 0
-3 -237 0
-4 -238 0
-5 -239 0
-6 -240 0
-1 -289 0
-2 -290 0
-3 -291 0
-4 -292 0
-5 -293 0
-6 -294 0
-1 -295 0
-2 -296 0
-3 -297 0
-4 -298 0
-5 -299 0
-6 -300 0
-1 -343 0
-2 -344 0
-3 -345 0
-4 -346 0
-5 -347 0
-6 -348 0
-1 -349 0
-2 -350 0
-3 -351 0
-4 -352 0
-5 -353 0
-6 -354 0
-1 -355 0
-2 -356 0
-3 -357 0
-4 -358 0
-5 -359 0
-6 -360 0
-1 -403 0
-2 -404 0
-3 -405 0
-4 -406 0
-5 -407 0
-6 -408 0
-1 -409 0
-2 -410 0
-3 -411 0
-4 -412 0
-5 -413 0
-6 -414 0
-1 -415 0
-2 -416 0
-3 -417 0
-4 -418 0
-5 -419 0
-6 -420 0
-1 -451 0
-2 -452 0
-3 -453 0
-4 -454 0
-5 -455 0
-6 -456 0
-1 -457 0
-2 -458 0
-3 -459 0
-4 -460 0
-5 -461 0
-6 -462 0
-1 -463 0
-2 -464 0
-3 -465 0
-4 -466 0
-5 -467 0
-6 -468 0
-1 -469 0
-2 -470 0
-3 -471 0
-4 -472 0
-5 -473 0
-6 -474 0
-1 -475 0
-2 -476 0
-3 -477 0
-4 -478 0
-5 -479 0
-6 -480 0
-1 -505 0
-2 -506 0
-3 -507 0
-4 -508 0
-5 -509 0
-6 -510 0
-1 -511 0
-2 -512 0
-3 -513 0
-4 -514 0
-5 -515 0
-6 -516 0
-1 -517 0
-2 -518 0
-3 -519 0
-4 -520 0
-5 -521 0
-6 -522 0
-1 -523 0
-2 -524 0
-3 -525 0
-4 -526 0
-5 -527 0
-6 -528 0
-1 -529 0
-2 -530 0
-3 -531 0
-4 -532 0
-5 -533 0
-6 -534 0
-1 -541 0
-2 -542 0
-3 -543 0
-4 -544 0
-5 -545 0
-6 -546 0
-1 -547 0
-2 -548 0
-3 -549 0
-4 -550 0
-5 -551 0
-6 -552 0
-1 -553 0
-2 -554 0
-3 -555 0
-4 -556 0
-5 -557 0
-6 -558 0
-1 -559 0
-2 -560 0
-3 -561 0
-4 -562 0
-5 -563 0
-6 -564 0
-1 -565 0
-2 -566 0
-3 -567 0
-4 -568 0
-5 -569 0
-6 -570 0
-1 -571 0
-2 -572 0
-3 -573 0
-4 -574 0
-5 -575 0
-6 -576 0
-1 -577 0
-2 -578 0
-3 -579 0
-4 -580 0
-5 -581 0
-6 -582 0
-1 -583 0
-2 -584 0
-3 -585 0
-4 -586 0
-5 -587 0
-6 -588 0
-7 -295 0
-8 -296 0
-9 -297 0
-10 -298 0
-11 -299 0
-12 -300 0
-7 -349 0
-8 -350 0
-9 -351 0
-10 -352 0
-11 -353 0
-12 -354 0
-7 -355 0
-8 -356 0
-9 -357 0
-10 -358 0
-11 -359 0
-12 -360 0
-7 -409 0
-8 -410 0
-9 -411 0
-10 -412 0
-11 -413 0
-12 -414 0
-7 -415 0
-8 -416 0
-9 -417 0
-10 -418 0
-11 -419 0
-12 -420 0
-7 -457 0
-8 -458 0
-9 -459 0
-10 -460 0
-11 -461 0
-12 -462 0
-7 -463 0
-8 -464 0
-9 -465 0
-10 -466 0
-11 -467 0
-12 -468 0
-7 -469 0
-8 -470 0
-9 -471 0
-10 -472 0
-11 -473 0
-12 -474 0
-7 -475 0
-8 -476 0
-9 -477 0
-10 -478 0
-11 -479 0
-12 -480 0
-7 -511 0
-8 -512 0
-9 -513 0
-10 -514 0
-11 -515 0
-12 -516 0
-7 -517 0
-8 -518 0
-9 -519 0
-10 -520 0
-11 -521 0
-12 -522 0
-7 -523 0
-8 -524 0
-9 -525 0
-10 -526 0
-11 -527 0
-12 -528 0
-7 -529 0
-8 -530 0
-9 -531 0
-10 -532 0
-11 -533 0
-12 -534 0
-7 -535 0
-8 -536 0
-9 -537 0
-10 -538 0
-11 -539 0
-12 -540 0
-7 -541 0
-8 -542 0
-9 -543 0
-10 -544 0
-11 -545 0
-12 -546 0
-7 -547 0
-8 -548 0
-9 -549 0
-10 -550 0
-11 -551 0
-12 -552 0
-7 -553 0
-8 -554 0
-9 -555 0
-10 -556 0
-11 -557 0
-12 -558 0
-7 -559 0
-8 -560 0
-9 -561 0
-10 -562 0
-11 -563 0
-12 -564 0
-7 -565 0
-8 -566 0
-9 -567 0
-10 -568 0
-11 -569 0
-12 -570 0
-7 -571 0
-8 -572 0
-9 -573 0
-10 -574 0
-11 -575 0
-12 -576 0
-7 -577 0
-8 -578 0
-9 -579 0
-10 -580 0
-11 -581 0
-12 -582 0
-7 -583 0
-8 -584 0
-9 -585 0
-10 -586 0
-11 -587 0
-12 -588 0
-7 -589 0
-8 -590 0
-9 -591 0
-10 -592 0
-11 -593 0
-12 -594 0
-13 -355 0
-14 -356 0
-15 -357 0
-16 -358 0
-17 -359 0
-18 -360 0
-13 -415 0
-14 -416 0
-15 -417 0
-16 -418 0
-17 -419 0
-18 -420 0
-13 -463 0
-14 -464 0
-15 -465 0
-16 -466 0
-17 -467 0
-18 -468 0
-13 -469 0
-14 -470 0
-15 -471 0
-16 -472 0
-17 -473 0
-18 -474 0
-13 -475 0
-14 -476 0
-15 -477 0
-16 -478 0
-17 -479 0
-18 -480 0
-13 -517 0
-14 -518 0
-15 -519 0
-16 -520 0
-17 -521 0
-18 -522 0
-13 -523 0
-14 -524 0
-15 -525 0
-16 -526 0
-17 -527 0
-18 -528 0
-13 -529 0
-14 -530 0
-15 -531 0
-16 -532 0
-17 -533 0
-18 -534 0
-13 -535 0
-14 -536 0
-15 -537 0
-16 -538 0
-17 -539 0
-18 -540 0
-13 -541 0
-14 -542 0
-15 -543 0
-16 -544 0
-17 -545 0
-18 -546 0
-13 -547 0
-14 -548 0
-15 -549 0
-16 -550 0
-17 -551 0
-18 -552 0
-13 -553 0
-14 -554 0
-15 -555 0
-16 -556 0
-17 -557 0
-18 -558 0
-13 -559 0
-14 -560 0
-15 -561 0
-16 -562 0
-17 -563 0
-18 -564 0
-13 -565 0
-14 -566 0
-15 -567 0
-16 -568 0
-17 -569 0
-18 -570 0
-13 -571 0
-14 -572 0
-15 -573 0
-16 -574 0
-17 -575 0
-18 -576 0
-13 -577 0
-14 -578 0
-15 -579 0
-16 -580 0
-17 -581 0
-18 -582 0
-13 -583 0
-14 -584 0
-15 -585 0
-16 -586 0
-17 -587 0
-18 -588 0
-13 -589 0
-14 -590 0
-15 -591 0
-16 -592 0
-17 -593 0
-18 -594 0
-13 -595 0
-14 -596 0
-15 -597 0
-16 -598 0
-17 -599 0
-18 -600 0
-19 -469 0
-20 -470 0
-21 -471 0
-22 -472 0
-23 -473 0
-24 -474 0
-19 -475 0
-20 -476 0
-21 -477 0
-22 -478 0
-23 -479 0
-24 -480 0
-19 -523 0
-20 -524 0
-21 -525 0
-22 -526 0
-23 -527 0
-24 -528 0
-19 -529 0
-20 -530 0
-21 -531 0
-22 -532 0
-23 -533 0
-24 -534 0
-19 -535 0
-20 -536 0
-21 -537 0
-22 -538 0
-23 -539 0
-24 -540 0
-19 -541 0
-20 -542 0
-21 -543 0
-22 -544 0
-23 -545 0
-24 -546 0
-19 -547 0
-20 -548 0
-21 -549 0
-22 -550 0
-23 -551 0
-24 -552 0
-19 -553 0
-20 -554 0
-21 -555 0
-22 -556 0
-23 -557 0
-24 -558 0
-19 -559 0
-20 -560 0
-21 -561 0
-22 -562 0
-23 -563 0
-24 -564 0
-19 -565 0
-20 -566 0
-21 -567 0
-22 -568 0
-23 -569 0
-24 -570 0
-19 -571 0
-20 -572 0
-21 -573 0
-22 -574 0
-23 -575 0
-24 -576 0
-19 -577 0
-20 -578 0
-21 -579 0
-22 -580 0
-23 -581 0
-24 -582 0
-19 -583 0
-20 -584 0
-21 -585 0
-22 -586 0
-23 -587 0
-24 -588 0
-19 -589 0
-20 -590 0
-21 -591 0
-22 -592 0
-23 -593 0
-24 -594 0
-19 -595 0
-20 -596 0
-21 -597 0
-22 -598 0
-23 -599 0
-24 -600 0
-25 -475 0
-26 -476 0
-27 -477 0
-28 -478 0
-29 -479 0
-30 -480 0
-25 -481 0
-26 -482 0
-27 -483 0
-28 -484 0
-29 -485 0
-30 -486 0
-25 -529 0
-26 -530 0
-27 -531 0
-28 -532 0
-29 -533 0
-30 -534 0
-25 -535 0
-26 -536 0
-27 -537 0
-28 -538 0
-29 -539 0
-30 -540 0
-25 -541 0
-26 -542 0
-27 -543 0
-28 -544 0
-29 -545 0
-30 -546 0
-25 -547 0
-26 -548 0
-27 -549 0
-28 -550 0
-29 -551 0
-30 -552 0
-25 -553 0
-26 -554 0
-27 -555 0
-28 -556 0
-29 -557 0
-30 -558 0
-25 -559 0
-26 -560 0
-27 -561 0
-28 -562 0
-29 -563 0
-30 -564 0
-25 -565 0
-26 -566 0
-27 -567 0
-28 -568 0
-29 -569 0
-30 -570 0
-25 -571 0
-26 -572 0
-27 -573 0
-28 -574 0
-29 -575 0
-30 -576 0
-25 -577 0
-26 -578 0
-27 -579 0
-28 -580 0
-29 -581 0
-30 -582 0
-25 -583 0
-26 -584 0
-27 -585 0
-28 -586 0
-29 -587 0
-30 -588 0
-25 -589 0
-26 -590 0
-27 -591 0
-28 -592 0
-29 -593 0
-30 -594 0
-25 -595 0
-26 -596 0
-27 -597 0
-28 -598 0
-29 -599 0
-30 -600 0
-31 -421 0
-32 -422 0
-33 -423 0
-34 -424 0
-35 -425 0
-36 -426 0
-31 -481 0
-32 -482 0
-33 -483 0
-34 -484 0
-35 -485 0
-36 -486 0
-31 -487 0
-32 -488 0
-33 -489 0
-34 -490 0
-35 -491 0
-36 -492 0
-31 -535 0
-32 -536 0
-33 -537 0
-34 -538 0
-35 -539 0
-36 -540 0
-31 -541 0
-32 -542 0
-33 -543 0
-34 -544 0
-35 -545 0
-36 -546 0
-31 -547 0
-32 -548 0
-33 -549 0
-34 -550 0
-35 -551 0
-36 -552 0
-31 -553 0
-32 -554 0
-33 -555 0
-34 -556 0
-35 -557 0
-36 -558 0
-31 -559 0
-32 -560 0
-33 -561 0
-34 -562 0
-35 -563 0
-36 -564 0
-31 -565 0
-32 -566 0
-33 -567 0
-34 -568 0
-35 -569 0
-36 -570 0
-31 -571 0
-32 -572 0
-33 -573 0
-34 -574 0
-35 -575 0
-36 -576 0
-31 -577 0
-32 -578 0
-33 -579 0
-34 -580 0
-35 -581 0
-36 -582 0
-31 -583 0
-32 -584 0
-33 -585 0
-34 -586 0
-35 -587 0
-36 -588 0
-31 -589 0
-32 -590 0
-33 -591 0
-34 -592 0
-35 -593 0
-36 -594 0
-31 -595 0
-32 -596 0
-33 -597 0
-34 -598 0
-35 -599 0
-36 -600 0
-37 -421 0
-38 -422 0
-39 -423 0
-40 -424 0
-41 -425 0
-42 -426 0
-37 -427 0
-38 -428 0
-39 -429 0
-40 -430 0
-41 -431 0
-42 -432 0
-37 -481 0
-38 -482 0
-39 -483 0
-40 -484 0
-41 -485 0
-42 -486 0
-37 -487 0
-38 -488 0
-39 -489 0
-40 -490 0
-41 -491 0
-42 -492 0
-37 -493 0
-38 -494 0
-39 -495 0
-40 -496 0
-41 -497 0
-42 -498 0
-37 -541 0
-38 -542 0
-39 -543 0
-40 -544 0
-41 -545 0
-42 -546 0
-37 -547 0
-38 -548 0
-39 -549 0
-40 -550 0
-41 -551 0
-42 -552 0
-37 -553 0
-38 -554 0
-39 -555 0
-40 -556 0
-41 -557 0
-42 -558 0
-37 -559 0
-38 -560 0
-39 -561 0
-40 -562 0
-41 -563 0
-42 -564 0
-37 -565 0
-38 -566 0
-39 -567 0
-40 -568 0
-41 -569 0
-42 -570 0
-37 -571 0
-38 -572 0
-39 -573 0
-40 -574 0
-41 -575 0
-42 -576 0
-37 -577 0
-38 -578 0
-39 -579 0
-40 -580 0
-41 -581 0
-42 -582 0
-37 -583 0
-38 -584 0
-39 -585 0
-40 -586 0
-41 -587 0
-42 -588 0
-37 -589 0
-38 -590 0
-39 -591 0
-40 -592 0
-41 -593 0
-42 -594 0
-37 -595 0
-38 -596 0
-39 -597 0
-40 -598 0
-41 -599 0
-42 -600 0
-43 -301 0
-44 -302 0
-45 -303 0
-46 -304 0
-47 -305 0
-48 -306 0
-43 -361 0
-44 -362 0
-45 -363 0
-46 -364 0
-47 -365 0
-48 -366 0
-43 -421 0
-44 -422 0
-45 -423 0
-46 -424 0
-47 -425 0
-48 -426 0
-43 -427 0
-44 -428 0
-45 -429 0
-46 -430 0
-47 -431 0
-48 -432 0
-43 -433 0
-44 -434 0
-45 -435 0
-46 -436 0
-47 -437 0
-48 -438 0
-43 -481 0
-44 -482 0
-45 -483 0
-46 -484 0
-47 -485 0
-48 -486 0
-43 -487 0
-44 -488 0
-45 -489 0
-46 -490 0
-47 -491 0
-48 -492 0
-43 -493 0
-44 -494 0
-45 -495 0
-46 -496 0
-47 -497 0
-48 -498 0
-43 -499 0
-44 -500 0
-45 -501 0
-46 -502 0
-47 -503 0
-48 -504 0
-43 -541 0
-44 -542 0
-45 -543 0
-46 -544 0
-47 -545 0
-48 -546 0
-43 -547 0
-44 -548 0
-45 -549 0
-46 -550 0
-47 -551 0
-48 -552 0
-43 -553 0
-44 -554 0
-45 -555 0
-46 -556 0
-47 -557 0
-48 -558 0
-43 -559 0
-44 -560 0
-45 -561 0
-46 -562 0
-47 -563 0
-48 -564 0
-43 -565 0
-44 -566 0
-45 -567 0
-46 -568 0
-47 -569 0
-48 -570 0
-43 -571 0
-44 -572 0
-45 -573 0
-46 -574 0
-47 -575 0
-48 -576 0
-43 -577 0
-44 -578 0
-45 -579 0
-46 -580 0
-47 -581 0
-48 -582 0
-43 -583 0
-44 -584 0
-45 -585 0
-46 -586 0
-47 -587 0
-48 -588 0
-43 -589 0
-44 -590 0
-45 -591 0
-46 -592 0
-47 -593 0
-48 -594 0
-43 -595 0
-44 -596 0
-45 -597 0
-46 -598 0
-47 -599 0
-48 -600 0
-49 -241 0
-50 -242 0
-51 -243 0
-52 -244 0
-53 -245 0
-54 -246 0
-49 -301 0
-50 -302 0
-51 -303 0
-52 -304 0
-53 -305 0
-54 -306 0
-49 -307 0
-50 -308 0
-51 -309 0
-52 -310 0
-53 -311 0
-54 -312 0
-49 -361 0
-50 -362 0
-51 -363 0
-52 -364 0
-53 -365 0
-54 -366 0
-49 -367 0
-50 -368 0
-51 -369 0
-52 -370 0
-53 -371 0
-54 -372 0
-49 -421 0
-50 -422 0
-51 -423 0
-52 -424 0
-53 -425 0
-54 -426 0
-49 -427 0
-50 -428 0
-51 -429 0
-52 -430 0
-53 -431 0
-54 -432 0
-49 -433 0
-50 -434 0
-51 -435 0
-52 -436 0
-53 -437 0
-54 -438 0
-49 -439 0
-50 -440 0
-51 -441 0
-52 -442 0
-53 -443 0
-54 -444 0
-49 -481 0
-50 -482 0
-51 -483 0
-52 -484 0
-53 -485 0
-54 -486 0
-49 -487 0
-50 -488 0
-51 -489 0
-52 -490 0
-53 -491 0
-54 -492 0
-49 -493 0
-50 -494 0
-51 -495 0
-52 -496 0
-53 -497 0
-54 -498 0
-49 -499 0
-50 -500 0
-51 -501 0
-52 -502 0
-53 -503 0
-54 -504 0
-49 -505 0
-50 -506 0
-51 -507 0
-52 -508 0
-53 -509 0
-54 -510 0
-49 -547 0
-50 -548 0
-51 -549 0
-52 -550 0
-53 -551 0
-54 -552 0
-49 -553 0
-50 -554 0
-51 -555 0
-52 -556 0
-53 -557 0
-54 -558 0
-49 -559 0
-50 -560 0
-51 -561 0
-52 -562 0
-53 -563 0
-54 -564 0
-49 -565 0
-50 -566 0
-51 -567 0
-52 -568 0
-53 -569 0
-54 -570 0
-49 -571 0
-50 -572 0
-51 -573 0
-52 -574 0
-53 -575 0
-54 -576 0
-49 -577 0
-50 -578 0
-51 -579 0
-52 -580 0
-53 -581 0
-54 -582 0
-49 -583 0
-50 -584 0
-51 -585 0
-52 -586 0
-53 -587 0
-54 -588 0
-49 -589 0
-50 -590 0
-51 -591 0
-52 -592 0
-53 -593 0
-54 -594 0
-49 -595 0
-50 -596 0
-51 -597 0
-52 -598 0
-53 -599 0
-54 -600 0
-55 -61 0
-56 -62 0
-57 -63 0
-58 -64 0
-59 -65 0
-60 -66 0
-55 -121 0
-56 -122 0
-57 -123 0
-58 -124 0
-59 -125 0
-60 -126 0
-55 -181 0
-56 -182 0
-57 -183 0
-58 -184 0
-59 -185 0
-60 -186 0
-55 -241 0
-56 -242 0
-57 -243 0
-58 -244 0
-59 -245 0
-60 -246 0
-55 -247 0
-56 -248 0
-57 -249 0
-58 -250 0
-59 -251 0
-60 -252 0
-55 -301 0
-56 -302 0
-57 -303 0
-58 -304 0
-59 -305 0
-60 -306 0
-55 -307 0
-56 -308 0
-57 -309 0
-58 -310 0
-59 -311 0
-60 -312 0
-55 -313 0
-56 -314 0
-57 -315 0
-58 -316 0
-59 -317 0
-60 -318 0
-55 -361 0
-56 -362 0
-57 -363 0
-58 -364 0
-59 -365 0
-60 -366 0
-55 -367 0
-56 -368 0
-57 -369 0
-58 -370 0
-59 -371 0
-60 -372 0
-55 -373 0
-56 -374 0
-57 -375 0
-58 -376 0
-59 -377 0
-60 -378 0
-55 -421 0
-56 -422 0
-57 -423 0
-58 -424 0
-59 -425 0
-60 -426 0
-55 -427 0
-56 -428 0
-57 -429 0
-58 -430 0
-59 -431 0
-60 -432 0
-55 -433 0
-56 -434 0
-57 -435 0
-58 -436 0
-59 -437 0
-60 -438 0
-55 -439 0
-56 -440 0
-57 -441 0
-58 -442 0
-59 -443 0
-60 -444 0
-55 -445 0
-56 -446 0
-57 -447 0
-58 -448 0
-59 -449 0
-60 -450 0
-55 -487 0
-56 -488 0
-57 -489 0
-58 -490 0
-59 -491 0
-60 -492 0
-55 -493 0
-56 -494 0
-57 -495 0
-58 -496 0
-59 -497 0
-60 -498 0
-55 -499 0
-56 -500 0
-57 -501 0
-58 -502 0
-59 -503 0
-60 -504 0
-55 -505 0
-56 -506 0
-57 -507 0
-58 -508 0
-59 -509 0
-60 -510 0
-55 -511 0
-56 -512 0
-57 -513 0
-58 -514 0
-59 -515 0
-60 -516 0
-55 -553 0
-56 -554 0
-57 -555 0
-58 -556 0
-59 -557 0
-60 -558 0
-55 -559 0
-56 -560 0
-57 -561 0
-58 -562 0
-59 -563 0
-60 -564 0
-55 -565 0
-56 -566 0
-57 -567 0
-58 -568 0
-59 -569 0
-60 -570 0
-55 -571 0
-56 -572 0
-57 -573 0
-58 -574 0
-59 -575 0
-60 -576 0
-55 -577 0
-56 -578 0
-57 -579 0
-58 -580 0
-59 -581 0
-60 -582 0
-55 -583 0
-56 -584 0
-57 -585 0
-58 -586 0
-59 -587 0
-60 -588 0
-55 -589 0
-56 -590 0
-57 -591 0
-58 -592 0
-59 -593 0
-60 -594 0
-55 -595 0
-56 -596 0
-57 -597 0
-58 -598 0
-59 -599 0
-60 -600 0
-61 -115 0
-62 -116 0
-63 -117 0
-64 -118 0
-65 -119 0
-66 -120 0
-61 -175 0
-62 -176 0
-63 -177 0
-64 -178 0
-65 -179 0
-66 -180 0
-61 -235 0
-62 -236 0
-63 -237 0
-64 -238 0
-65 -239 0
-66 -240 0
-61 -295 0
-62 -296 0
-63 -297 0
-64 -298 0
-65 -299 0
-66 -300 0
-61 -349 0
-62 -350 0
-63 -351 0
-64 -352 0
-65 -353 0
-66 -354 0
-61 -355 0
-62 -356 0
-63 -357 0
-64 -358 0
-65 -359 0
-66 -360 0
-61 -403 0
-62 -404 0
-63 -405 0
-64 -406 0
-65 -407 0
-66 -408 0
-61 -409 0
-62 -410 0
-63 -411 0
-64 -412 0
-65 -413 0
-66 -414 0
-61 -415 0
-62 -416 0
-63 -417 0
-64 -418 0
-65 -419 0
-66 -420 0
-61 -463 0
-62 -464 0
-63 -465 0
-64 -466 0
-65 -467 0
-66 -468 0
-61 -469 0
-62 -470 0
-63 -471 0
-64 -472 0
-65 -473 0
-66 -474 0
-61 -475 0
-62 -476 0
-63 -477 0
-64 -478 0
-65 -479 0
-66 -480 0
-61 -511 0
-62 -512 0
-63 -513 0
-64 -514 0
-65 -515 0
-66 -516 0
-61 -517 0
-62 -518 0
-63 -519 0
-64 -520 0
-65 -521 0
-66 -522 0
-61 -523 0
-62 -524 0
-63 -525 0
-64 -526 0
-65 -527 0
-66 -528 0
-61 -529 0
-62 -530 0
-63 -531 0
-64 -532 0
-65 -533 0
-66 -534 0
-61 -535 0
-62 -536 0
-63 -537 0
-64 -538 0
-65 -539 0
-66 -540 0
-61 -565 0
-62 -566 0
-63 -567 0
-64 -568 0
-65 -569 0
-66 -570 0
-61 -571 0
-62 -572 0
-63 -573 0
-64 -574 0
-65 -575 0
-66 -576 0
-61 -577 0
-62 -578 0
-63 -579 0
-64 -580 0
-65 -581 0
-66 -582 0
-61 -583 0
-62 -584 0
-63 -585 0
-64 -586 0
-65 -587 0
-66 -588 0
-61 -589 0
-62 -590 0
-63 -591 0
-64 -592 0
-65 -593 0
-66 -594 0
-67 -355 0
-68 -356 0
-69 -357 0
-70 -358 0
-71 -359 0
-72 -360 0
-67 -409 0
-68 -410 0
-69 -411 0
-70 -412 0
-71 -413 0
-72 -414 0
-67 -415 0
-68 -416 0
-69 -417 0
-70 -418 0
-71 -419 0
-72 -420 0
-67 -469 0
-68 -470 0
-69 -471 0
-70 -472 0
-71 -473 0
-72 -474 0
-67 -475 0
-68 -476 0
-69 -477 0
-70 -478 0
-71 -479 0
-72 -480 0
-67 -517 0
-68 -518 0
-69 -519 0
-70 -520 0
-71 -521 0
-72 -522 0
-67 -523 0
-68 -524 0
-69 -525 0
-70 -526 0
-71 -527 0
-72 -528 0
-67 -529 0
-68 -530 0
-69 -531 0
-70 -532 0
-71 -533 0
-72 -534 0
-67 -535 0
-68 -536 0
-69 -537 0
-70 -538 0
-71 -539 0
-72 -540 0
-67 -571 0
-68 -572 0
-69 -573 0
-70 -574 0
-71 -575 0
-72 -576 0
-67 -577 0
-68 -578 0
-69 -579 0
-70 -580 0
-71 -581 0
-72 -582 0
-67 -583 0
-68 -584 0
-69 -585 0
-70 -586 0
-71 -587 0
-72 -588 0
-67 -589 0
-68 -590 0
-69 -591 0
-70 -592 0
-71 -593 0
-72 -594 0
-67 -595 0
-68 -596 0
-69 -597 0
-70 -598 0
-71 -599 0
-72 -600 0
-73 -415 0
-74 -416 0
-75 -417 0
-76 -418 0
-77 -419 0
-78 -420 0
-73 -475 0
-74 -476 0
-75 -477 0
-76 -478 0
-77 -479 0
-78 -480 0
-73 -523 0
-74 -524 0
-75 -525 0
-76 -526 0
-77 -527 0
-78 -528 0
-73 -529 0
-74 -530 0
-75 -531 0
-76 -532 0
-77 -533 0
-78 -534 0
-73 -535 0
-74 -536 0
-75 -537 0
-76 -538 0
-77 -539 0
-78 -540 0
-73 -577 0
-74 -578 0
-75 -579 0
-76 -580 0
-77 -581 0
-78 -582 0
-73 -583 0
-74 -584 0
-75 -585 0
-76 -586 0
-77 -587 0
-78 -588 0
-73 -589 0
-74 -590 0
-75 -591 0
-76 -592 0
-77 -593 0
-78 -594 0
-73 -595 0
-74 -596 0
-75 -597 0
-76 -598 0
-77 -599 0
-78 -600 0
-79 -529 0
-80 -530 0
-81 -531 0
-82 -532 0
-83 -533 0
-84 -534 0
-79 -535 0
-80 -536 0
-81 -537 0
-82 -538 0
-83 -539 0
-84 -540 0
-79 -583 0
-80 -584 0
-81 -585 0
-82 -586 0
-83 -587 0
-84 -588 0
-79 -589 0
-80 -590 0
-81 -591 0
-82 -592 0
-83 -593 0
-84 -594 0
-79 -595 0
-80 -596 0
-81 -597 0
-82 -598 0
-83 -599 0
-84 -600 0
-85 -535 0
-86 -536 0
-87 -537 0
-88 -538 0
-89 -539 0
-90 -540 0
-85 -541 0
-86 -542 0
-87 -543 0
-88 -544 0
-89 -545 0
-90 -546 0
-85 -589 0
-86 -590 0
-87 -591 0
-88 -592 0
-89 -593 0
-90 -594 0
-85 -595 0
-86 -596 0
-87 -597 0
-88 -598 0
-89 -599 0
-90 -600 0
-91 -481 0
-92 -482 0
-93 -483 0
-94 -484 0
-95 -485 0
-96 -486 0
-91 -541 0
-92 -542 0
-93 -543 0
-94 -544 0
-95 -545 0
-96 -546 0
-91 -547 0
-92 -548 0
-93 -549 0
-94 -550 0
-95 -551 0
-96 -552 0
-91 -595 0
-92 -596 0
-93 -597 0
-94 -598 0
-95 -599 0
-96 -600 0
-97 -481 0
-98 -482 0
-99 -483 0
-100 -484 0
-101 -485 0
-102 -486 0
-97 -487 0
-98 -488 0
-99 -489 0
-100 -490 0
-101 -491 0
-102 -492 0
-97 -541 0
-98 -542 0
-99 -543 0
-100 -544 0
-101 -545 0
-102 -546 0
-97 -547 0
-98 -548 0
-99 -549 0
-100 -550 0
-101 -551 0
-102 -552 0
-97 -553 0
-98 -554 0
-99 -555 0
-100 -556 0
-101 -557 0
-102 -558 0
-103 -361 0
-104 -362 0
-105 -363 0
-106 -364 0
-107 -365 0
-108 -366 0
-103 -421 0
-104 -422 0
-105 -423 0
-106 -424 0
-107 -425 0
-108 -426 0
-103 -481 0
-104 -482 0
-105 -483 0
-106 -484 0
-107 -485 0
-108 -486 0
-103 -487 0
-104 -488 0
-105 -489 0
-106 -490 0
-107 -491 0
-108 -492 0
-103 -493 0
-104 -494 0
-105 -495 0
-106 -496 0
-107 -497 0
-108 -498 0
-103 -541 0
-104 -542 0
-105 -543 0
-106 -544 0
-107 -545 0
-108 -546 0
-103 -547 0
-104 -548 0
-105 -549 0
-106 -550 0
-107 -551 0
-108 -552 0
-103 -553 0
-104 -554 0
-105 -555 0
-106 -556 0
-107 -557 0
-108 -558 0
-103 -559 0
-104 -560 0
-105 -561 0
-106 -562 0
-107 -563 0
-108 -564 0
-109 -301 0
-110 -302 0
-111 -303 0
-112 -304 0
-113 -305 0
-114 -306 0
-109 -361 0
-110 -362 0
-111 -363 0
-112 -364 0
-113 -365 0
-114 -366 0
-109 -367 0
-110 -368 0
-111 -369 0
-112 -370 0
-113 -371 0
-114 -372 0
-109 -421 0
-110 -422 0
-111 -423 0
-112 -424 0
-113 -425 0
-114 -426 0
-109 -427 0
-110 -428 0
-111 -429 0
-112 -430 0
-113 -431 0
-114 -432 0
-109 -481 0
-110 -482 0
-111 -483 0
-112 -484 0
-113 -485 0
-114 -486 0
-109 -487 0
-110 -488 0
-111 -489 0
-112 -490 0
-113 -491 0
-114 -492 0
-109 -493 0
-110 -494 0
-111 -495 0
-112 -496 0
-113 -497 0
-114 -498 0
-109 -499 0
-110 -500 0
-111 -501 0
-112 -502 0
-113 -503 0
-114 -504 0
-109 -541 0
-110 -542 0
-111 -543 0
-112 -544 0
-113 -545 0
-114 -546 0
-109 -547 0
-110 -548 0
-111 -549 0
-112 -550 0
-113 -551 0
-114 -552 0
-109 -553 0
-110 -554 0
-111 -555 0
-112 -556 0
-113 -557 0
-114 -558 0
-109 -559 0
-110 -560 0
-111 -561 0
-112 -562 0
-113 -563 0
-114 -564 0
-109 -565 0
-110 -566 0
-111 -567 0
-112 -568 0
-113 -569 0
-114 -570 0
-115 -121 0
-116 -122 0
-117 -123 0
-118 -124 0
-119 -125 0
-120 -126 0
-115 -181 0
-116 -182 0
-117 -183 0
-118 -184 0
-119 -185 0
-120 -186 0
-115 -241 0
-116 -242 0
-117 -243 0
-118 -244 0
-119 -245 0
-120 -246 0
-115 -301 0
-116 -302 0
-117 -303 0
-118 -304 0
-119 -305 0
-120 -306 0
-115 -307 0
-116 -308 0
-117 -309 0
-118 -310 0
-119 -311 0
-120 -312 0
-115 -361 0
-116 -362 0
-117 -363 0
-118 -364 0
-119 -365 0
-120 -366 0
-115 -367 0
-116 -368 0
-117 -369 0
-118 -370 0
-119 -371 0
-120 -372 0
-115 -373 0
-116 -374 0
-117 -375 0
-118 -376 0
-119 -377 0
-120 -378 0
-115 -421 0
-116 -422 0
-117 -423 0
-118 -424 0
-119 -425 0
-120 -426 0
-115 -427 0
-116 -428 0
-117 -429 0
-118 -430 0
-119 -431 0
-120 -432 0
-115 -433 0
-116 -434 0
-117 -435 0
-118 -436 0
-119 -437 0
-120 -438 0
-115 -481 0
-116 -482 0
-117 -483 0
-118 -484 0
-119 -485 0
-120 -486 0
-115 -487 0
-116 -488 0
-117 -489 0
-118 -490 0
-119 -491 0
-120 -492 0
-115 -493 0
-116 -494 0
-117 -495 0
-118 -496 0
-119 -497 0
-120 -498 0
-115 -499 0
-116 -500 0
-117 -501 0
-118 -502 0
-119 -503 0
-120 -504 0
-115 -505 0
-116 -506 0
-117 -507 0
-118 -508 0
-119 -509 0
-120 -510 0
-115 -547 0
-116 -548 0
-117 -549 0
-118 -550 0
-119 -551 0
-120 -552 0
-115 -553 0
-116 -554 0
-117 -555 0
-118 -556 0
-119 -557 0
-120 -558 0
-115 -559 0
-116 -560 0
-117 -561 0
-118 -562 0
-119 -563 0
-120 -564 0
-115 -565 0
-116 -566 0
-117 -567 0
-118 -568 0
-119 -569 0
-120 -570 0
-115 -571 0
-116 -572 0
-117 -573 0
-118 -574 0
-119 -575 0
-120 -576 0
-121 -175 0
-122 -176 0
-123 -177 0
-124 -178 0
-125 -179 0
-126 -180 0
-121 -235 0
-122 -236 0
-123 -237 0
-124 -238 0
-125 -239 0
-126 -240 0
-121 -295 0
-122 -296 0
-123 -297 0
-124 -298 0
-125 -299 0
-126 -300 0
-121 -355 0
-122 -356 0
-123 -357 0
-124 -358 0
-125 -359 0
-126 -360 0
-121 -409 0
-122 -410 0
-123 -411 0
-124 -412 0
-125 -413 0
-126 -414 0
-121 -415 0
-122 -416 0
-123 -417 0
-124 -418 0
-125 -419 0
-126 -420 0
-121 -463 0
-122 -464 0
-123 -465 0
-124 -466 0
-125 -467 0
-126 -468 0
-121 -469 0
-122 -470 0
-123 -471 0
-124 -472 0
-125 -473 0
-126 -474 0
-121 -475 0
-122 -476 0
-123 -477 0
-124 -478 0
-125 -479 0
-126 -480 0
-121 -523 0
-122 -524 0
-123 -525 0
-124 -526 0
-125 -527 0
-126 -528 0
-121 -529 0
-122 -530 0
-123 -531 0
-124 -532 0
-125 -533 0
-126 -534 0
-121 -535 0
-122 -536 0
-123 -537 0
-124 -538 0
-125 -539 0
-126 -540 0
-121 -571 0
-122 -572 0
-123 -573 0
-124 -574 0
-125 -575 0
-126 -576 0
-121 -577 0
-122 -578 0
-123 -579 0
-124 -580 0
-125 -581 0
-126 -582 0
-121 -583 0
-122 -584 0
-123 -585 0
-124 -586 0
-125 -587 0
-126 -588 0
-121 -589 0
-122 -590 0
-123 -591 0
-124 -592 0
-125 -593 0
-126 -594 0
-121 -595 0
-122 -596 0
-123 -597 0
-124 -598 0
-125 -599 0
-126 -600 0
-127 -415 0
-128 -416 0
-129 -417 0
-130 -418 0
-131 -419 0
-132 -420 0
-127 -469 0
-128 -470 0
-129 -471 0
-130 -472 0
-131 -473 0
-132 -474 0
-127 -475 0
-128 -476 0
-129 -477 0
-130 -478 0
-131 -479 0
-132 -480 0
-127 -529 0
-128 -530 0
-129 -531 0
-130 -532 0
-131 -533 0
-132 -534 0
-127 -535 0
-128 -536 0
-129 -537 0
-130 -538 0
-131 -539 0
-132 -540 0
-127 -577 0
-128 -578 0
-129 -579 0
-130 -580 0
-131 -581 0
-132 -582 0
-127 -583 0
-128 -584 0
-129 -585 0
-130 -586 0
-131 -587 0
-132 -588 0
-127 -589 0
-128 -590 0
-129 -591 0
-130 -592 0
-131 -593 0
-132 -594 0
-127 -595 0
-128 -596 0
-129 -597 0
-130 -598 0
-131 -599 0
-132 -600 0
-133 -475 0
-134 -476 0
-135 -477 0
-136 -478 0
-137 -479 0
-138 -480 0
-133 -535 0
-134 -536 0
-135 -537 0
-136 -538 0
-137 -539 0
-138 -540 0
-133 -583 0
-134 -584 0
-135 -585 0
-136 -586 0
-137 -587 0
-138 -588 0
-133 -589 0
-134 -590 0
-135 -591 0
-136 -592 0
-137 -593 0
-138 -594 0
-133 -595 0
-134 -596 0
-135 -597 0
-136 -598 0
-137 -599 0
-138 -600 0
-139 -589 0
-140 -590 0
-141 -591 0
-142 -592 0
-143 -593 0
-144 -594 0
-139 -595 0
-140 -596 0
-141 -597 0
-142 -598 0
-143 -599 0
-144 -600 0
-145 -595 0
-146 -596 0
-147 -597 0
-148 -598 0
-149 -599 0
-150 -600 0
-151 -541 0
-152 -542 0
-153 -543 0
-154 -544 0
-155 -545 0
-156 -546 0
-157 -541 0
-158 -542 0
-159 -543 0
-160 -544 0
-161 -545 0
-162 -546 0
-157 -547 0
-158 -548 0
-159 -549 0
-160 -550 0
-161 -551 0
-162 -552 0
-163 -421 0
-164 -422 0
-165 -423 0
-166 -424 0
-167 -425 0
-168 -426 0
-163 -481 0
-164 -482 0
-165 -483 0
-166 -484 0
-167 -485 0
-168 -486 0
-163 -541 0
-164 -542 0
-165 -543 0
-166 -544 0
-167 -545 0
-168 -546 0
-163 -547 0
-164 -548 0
-165 -549 0
-166 -550 0
-167 -551 0
-168 -552 0
-163 -553 0
-164 -554 0
-165 -555 0
-166 -556 0
-167 -557 0
-168 -558 0
-169 -361 0
-170 -362 0
-171 -363 0
-172 -364 0
-173 -365 0
-174 -366 0
-169 -421 0
-170 -422 0
-171 -423 0
-172 -424 0
-173 -425 0
-174 -426 0
-169 -427 0
-170 -428 0
-171 -429 0
-172 -430 0
-173 -431 0
-174 -432 0
-169 -481 0
-170 -482 0
-171 -483 0
-172 -484 0
-173 -485 0
-174 -486 0
-169 -487 0
-170 -488 0
-171 -489 0
-172 -490 0
-173 -491 0
-174 -492 0
-169 -541 0
-170 -542 0
-171 -543 0
-172 -544 0
-173 -545 0
-174 -546 0
-169 -547 0
-170 -548 0
-171 -549 0
-172 -550 0
-173 -551 0
-174 -552 0
-169 -553 0
-170 -554 0
-171 -555 0
-172 -556 0
-173 -557 0
-174 -558 0
-169 -559 0
-170 -560 0
-171 -561 0
-172 -562 0
-173 -563 0
-174 -564 0
-175 -181 0
-176 -182 0
-177 -183 0
-178 -184 0
-179 -185 0
-180 -186 0
-175 -241 0
-176 -242 0
-177 -243 0
-178 -244 0
-179 -245 0
-180 -246 0
-175 -301 0
-176 -302 0
-177 -303 0
-178 -304 0
-179 -305 0
-180 -306 0
-175 -361 0
-176 -362 0
-177 -363 0
-178 -364 0
-179 -365 0
-180 -366 0
-175 -367 0
-176 -368 0
-177 -369 0
-178 -370 0
-179 -371 0
-180 -372 0
-175 -421 0
-176 -422 0
-177 -423 0
-178 -424 0
-179 -425 0
-180 -426 0
-175 -427 0
-176 -428 0
-177 -429 0
-178 -430 0
-179 -431 0
-180 -432 0
-175 -433 0
-176 -434 0
-177 -435 0
-178 -436 0
-179 -437 0
-180 -438 0
-175 -481 0
-176 -482 0
-177 -483 0
-178 -484 0
-179 -485 0
-180 -486 0
-175 -487 0
-176 -488 0
-177 -489 0
-178 -490 0
-179 -491 0
-180 -492 0
-175 -493 0
-176 -494 0
-177 -495 0
-178 -496 0
-179 -497 0
-180 -498 0
-175 -541 0
-176 -542 0
-177 -543 0
-178 -544 0
-179 -545 0
-180 -546 0
-175 -547 0
-176 -548 0
-177 -549 0
-178 -550 0
-179 -551 0
-180 -552 0
-175 -553 0
-176 -554 0
-177 -555 0
-178 -556 0
-179 -557 0
-180 -558 0
-175 -559 0
-176 -560 0
-177 -561 0
-178 -562 0
-179 -563 0
-180 -564 0
-175 -565 0
-176 -566 0
-177 -567 0
-178 -568 0
-179 -569 0
-180 -570 0
-181 -235 0
-182 -236 0
-183 -237 0
-184 -238 0
-185 -239 0
-186 -240 0
-181 -295 0
-182 -296 0
-183 -297 0
-184 -298 0
-185 -299 0
-186 -300 0
-181 -355 0
-182 -356 0
-183 -357 0
-184 -358 0
-185 -359 0
-186 -360 0
-181 -415 0
-182 -416 0
-183 -417 0
-184 -418 0
-185 -419 0
-186 -420 0
-181 -469 0
-182 -470 0
-183 -471 0
-184 -472 0
-185 -473 0
-186 -474 0
-181 -475 0
-182 -476 0
-183 -477 0
-184 -478 0
-185 -479 0
-186 -480 0
-181 -523 0
-182 -524 0
-183 -525 0
-184 -526 0
-185 -527 0
-186 -528 0
-181 -529 0
-182 -530 0
-183 -531 0
-184 -532 0
-185 -533 0
-186 -534 0
-181 -535 0
-182 -536 0
-183 -537 0
-184 -538 0
-185 -539 0
-186 -540 0
-181 -583 0
-182 -584 0
-183 -585 0
-184 -586 0
-185 -587 0
-186 -588 0
-181 -589 0
-182 -590 0
-183 -591 0
-184 -592 0
-185 -593 0
-186 -594 0
-181 -595 0
-182 -596 0
-183 -597 0
-184 -598 0
-185 -599 0
-186 -600 0
-187 -475 0
-188 -476 0
-189 -477 0
-190 -478 0
-191 -479 0
-192 -480 0
-187 -529 0
-188 -530 0
-189 -531 0
-190 -532 0
-191 -533 0
-192 -534 0
-187 -535 0
-188 -536 0
-189 -537 0
-190 -538 0
-191 -539 0
-192 -540 0
-187 -589 0
-188 -590 0
-189 -591 0
-190 -592 0
-191 -593 0
-192 -594 0
-187 -595 0
-188 -596 0
-189 -597 0
-190 -598 0
-191 -599 0
-192 -600 0
-193 -535 0
-194 -536 0
-195 -537 0
-196 -538 0
-197 -539 0
-198 -540 0
-193 -595 0
-194 -596 0
-195 -597 0
-196 -598 0
-197 -599 0
-198 -600 0
-223 -481 0
-224 -482 0
-225 -483 0
-226 -484 0
-227 -485 0
-228 -486 0
-223 -541 0
-224 -542 0
-225 -543 0
-226 -544 0
-227 -545 0
-228 -546 0
-229 -421 0
-230 -422 0
-231 -423 0
-232 -424 0
-233 -425 0
-234 -426 0
-229 -481 0
-230 -482 0
-231 -483 0
-232 -484 0
-233 -485 0
-234 -486 0
-229 -487 0
-230 -488 0
-231 -489 0
-232 -490 0
-233 -491 0
-234 -492 0
-229 -541 0
-230 -542 0
-231 -543 0
-232 -544 0
-233 -545 0
-234 -546 0
-229 -547 0
-230 -548 0
-231 -549 0
-232 -550 0
-233 -551 0
-234 -552 0
-235 -241 0
-236 -242 0
-237 -243 0
-238 -244 0
-239 -245 0
-240 -246 0
-235 -301 0
-236 -302 0
-237 -303 0
-238 -304 0
-239 -305 0
-240 -306 0
-235 -361 0
-236 -362 0
-237 -363 0
-238 -364 0
-239 -365 0
-240 -366 0
-235 -421 0
-236 -422 0
-237 -423 0
-238 -424 0
-239 -425 0
-240 -426 0
-235 -427 0
-236 -428 0
-237 -429 0
-238 -430 0
-239 -431 0
-240 -432 0
-235 -481 0
-236 -482 0
-237 -483 0
-238 -484 0
-239 -485 0
-240 -486 0
-235 -487 0
-236 -488 0
-237 -489 0
-238 -490 0
-239 -491 0
-240 -492 0
-235 -493 0
-236 -494 0
-237 -495 0
-238 -496 0
-239 -497 0
-240 -498 0
-235 -541 0
-236 -542 0
-237 -543 0
-238 -544 0
-239 -545 0
-240 -546 0
-235 -547 0
-236 -548 0
-237 -549 0
-238 -550 0
-239 -551 0
-240 -552 0
-235 -553 0
-236 -554 0
-237 -555 0
-238 -556 0
-239 -557 0
-240 -558 0
-241 -295 0
-242 -296 0
-243 -297 0
-244 -298 0
-245 -299 0
-246 -300 0
-241 -355 0
-242 -356 0
-243 -357 0
-244 -358 0
-245 -359 0
-246 -360 0
-241 -415 0
-242 -416 0
-243 -417 0
-244 -418 0
-245 -419 0
-246 -420 0
-241 -475 0
-242 -476 0
-243 -477 0
-244 -478 0
-245 -479 0
-246 -480 0
-241 -529 0
-242 -530 0
-243 -531 0
-244 -532 0
-245 -533 0
-246 -534 0
-241 -535 0
-242 -536 0
-243 -537 0
-244 -538 0
-245 -539 0
-246 -540 0
-241 -583 0
-242 -584 0
-243 -585 0
-244 -586 0
-245 -587 0
-246 -588 0
-241 -589 0
-242 -590 0
-243 -591 0
-244 -592 0
-245 -593 0
-246 -594 0
-241 -595 0
-242 -596 0
-243 -597 0
-244 -598 0
-245 -599 0
-246 -600 0
-247 -535 0
-248 -536 0
-249 -537 0
-250 -538 0
-251 -539 0
-252 -540 0
-247 -589 0
-248 -590 0
-249 -591 0
-250 -592 0
-251 -593 0
-252 -594 0
-247 -595 0
-248 -596 0
-249 -597 0
-250 -598 0
-251 -599 0
-252 -600 0
-253 -595 0
-254 -596 0
-255 -597 0
-256 -598 0
-257 -599 0
-258 -600 0
-283 -541 0
-284 -542 0
-285 -543 0
-286 -544 0
-287 -545 0
-288 -546 0
-289 -481 0
-290 -482 0
-291 -483 0
-292 -484 0
-293 -485 0
-294 -486 0
-289 -541 0
-290 -542 0
-291 -543 0
-292 -544 0
-293 -545 0
-294 -546 0
-289 -547 0
-290 -548 0
-291 -549 0
-292 -550 0
-293 -551 0
-294 -552 0
-295 -301 0
-296 -302 0
-297 -303 0
-298 -304 0
-299 -305 0
-300 -306 0
-295 -361 0
-296 -362 0
-297 -363 0
-298 -364 0
-299 -365 0
-300 -366 0
-295 -421 0
-296 -422 0
-297 -423 0
-298 -424 0
-299 -425 0
-300 -426 0
-295 -481 0
-296 -482 0
-297 -483 0
-298 -484 0
-299 -485 0
-300 -486 0
-295 -487 0
-296 -488 0
-297 -489 0
-298 -490 0
-299 -491 0
-300 -492 0
-295 -541 0
-296 -542 0
-297 -543 0
-298 -544 0
-299 -545 0
-300 -546 0
-295 -547 0
-296 -548 0
-297 -549 0
-298 -550 0
-299 -551 0
-300 -552 0
-295 -553 0
-296 -554 0
-297 -555 0
-298 -556 0
-299 -557 0
-300 -558 0
-301 -355 0
-302 -356 0
-303 -357 0
-304 -358 0
-305 -359 0
-306 -360 0
-301 -415 0
-302 -416 0
-303 -417 0
-304 -418 0
-305 -419 0
-306 -420 0
-301 -475 0
-302 -476 0
-303 -477 0
-304 -478 0
-305 -479 0
-306 -480 0
-301 -535 0
-302 -536 0
-303 -537 0
-304 -538 0
-305 -539 0
-306 -540 0
-301 -589 0
-302 -590 0
-303 -591 0
-304 -592 0
-305 -593 0
-306 -594 0
-301 -595 0
-302 -596 0
-303 -597 0
-304 -598 0
-305 -599 0
-306 -600 0
-307 -595 0
-308 -596 0
-309 -597 0
-310 -598 0
-311 -599 0
-312 -600 0
-349 -541 0
-350 -542 0
-351 -543 0
-352 -544 0
-353 -545 0
-354 -546 0
-355 -361 0
-356 -362 0
-357 -363 0
-358 -364 0
-359 -365 0
-360 -366 0
-355 -421 0
-356 -422 0
-357 -423 0
-358 -424 0
-359 -425 0
-360 -426 0
-355 -481 0
-356 -482 0
-357 -483 0
-358 -484 0
-359 -485 0
-360 -486 0
-355 -541 0
-356 -542 0
-357 -543 0
-358 -544 0
-359 -545 0
-360 -546 0
-355 -547 0
-356 -548 0
-357 -549 0
-358 -550 0
-359 -551 0
-360 -552 0
-361 -415 0
-362 -416 0
-363 -417 0
-364 -418 0
-365 -419 0
-366 -420 0
-361 -475 0
-362 -476 0
-363 -477 0
-364 -478 0
-365 -479 0
-366 -480 0
-361 -535 0
-362 -536 0
-363 -537 0
-364 -538 0
-365 -539 0
-366 -540 0
-361 -595 0
-362 -596 0
-363 -597 0
-364 -598 0
-365 -599 0
-366 -600 0
-415 -421 0
-416 -422 0
-417 -423 0
-418 -424 0
-419 -425 0
-420 -426 0
-415 -481 0
-416 -482 0
-417 -483 0
-418 -484 0
-419 -485 0
-420 -486 0
-415 -541 0
-416 -542 0
-417 -543 0
-418 -544 0
-419 -545 0
-420 -546 0
-421 -475 0
-422 -476 0
-423 -477 0
-424 -478 0
-425 -479 0
-426 -480 0
-421 -535 0
-422 -536 0
-423 -537 0
-424 -538 0
-425 -539 0
-426 -540 0
-421 -595 0
-422 -596 0
-423 -597 0
-424 -598 0
-425 -599 0
-426 -600 0
-475 -481 0
-476 -482 0
-477 -483 0
-478 -484 0
-479 -485 0
-480 -486 0
-475 -541 0
-476 -542 0
-477 -543 0
-478 -544 0
-479 -545 0
-480 -546 0
-481 -535 0
-482 -536 0
-483 -537 0
-484 -538 0
-485 -539 0
-486 -540 0
-481 -595 0
-482 -596 0
-483 -597 0
-484 -598 0
-485 -599 0
-486 -600 0
-535 -541 0
-536 -542 0
-537 -543 0
-538 -544 0
-539 -545 0
-540 -546 0
-541 -595 0
-542 -596 0
-543 -597 0
-544 -598 0
-545 -599 0
-546 -600 0
